c at-most-one of 4 pigeons in 3 holes
c p1@1 1
c p1@2 2
c p1@3 3
c p2@1 4
c p2@2 5
c p2@3 6
c p3@1 7
c p3@2 8
c p3@3 9
c p4@1 10
c p4@2 11
c p4@3 12
p inccnf
1 2 3 0
4 5 6 0
7 8 9 0
10 11 12 0
-1 -4 0
-1 -7 0
-1 -10 0
-4 -7 0
-4 -10 0
-7 -10 0
-2 -5 0
-2 -8 0
-2 -11 0
-5 -8 0
-5 -11 0
-8 -11 0
-3 -6 0
-3 -9 0
-3 -12 0
-6 -9 0
-6 -12 0
-9 -12 0
a 1 5 0 
a 1 6 0 
a 1 8 0 
a 1 9 0 
a 1 11 0 
a 1 12 0 
a 5 9 0 
a 5 12 0 
